src/crossbar_controller/crossbar_controller_task1/model/design_smt2.smt2
; SMT-LIBv2 description generated by Yosys 0.33+67 (git sha1 076c5ceb7, clang 10.0.0-4ubuntu1 -fPIC -Os)
; yosys-smt2-module crossbar_controller
(declare-sort |crossbar_controller_s| 0)
(declare-fun |crossbar_controller_is| (|crossbar_controller_s|) Bool)
(declare-fun |crossbar_controller#0| (|crossbar_controller_s|) Bool) ; \w
; yosys-smt2-input w 1
; yosys-smt2-wire w 1
; yosys-smt2-witness {"offset": 0, "path": ["\\w"], "smtname": "w", "smtoffset": 0, "type": "input", "width": 1}
(define-fun |crossbar_controller_n w| ((state |crossbar_controller_s|)) Bool (|crossbar_controller#0| state))
(declare-fun |crossbar_controller#1| (|crossbar_controller_s|) Bool) ; \s
; yosys-smt2-input s 1
; yosys-smt2-wire s 1
; yosys-smt2-witness {"offset": 0, "path": ["\\s"], "smtname": "s", "smtoffset": 0, "type": "input", "width": 1}
(define-fun |crossbar_controller_n s| ((state |crossbar_controller_s|)) Bool (|crossbar_controller#1| state))
(declare-fun |crossbar_controller#2| (|crossbar_controller_s|) (_ BitVec 6)) ; \in
; yosys-smt2-input in 6
; yosys-smt2-wire in 6
; yosys-smt2-witness {"offset": 0, "path": ["\\in"], "smtname": "in", "smtoffset": 0, "type": "input", "width": 6}
(define-fun |crossbar_controller_n in| ((state |crossbar_controller_s|)) (_ BitVec 6) (|crossbar_controller#2| state))
(define-fun |crossbar_controller#3| ((state |crossbar_controller_s|)) (_ BitVec 1) (bvnot (ite (|crossbar_controller#0| state) #b1 #b0))) ; $eq$crossbar_controller.v:25$9_Y
(define-fun |crossbar_controller#4| ((state |crossbar_controller_s|)) Bool (and (or  (|crossbar_controller#1| state) false) (or  (= ((_ extract 0 0) (|crossbar_controller#3| state)) #b1) false))) ; $logic_and$crossbar_controller.v:25$10_Y
(define-fun |crossbar_controller#5| ((state |crossbar_controller_s|)) (_ BitVec 6) (ite (|crossbar_controller#4| state) #b010010 (|crossbar_controller#2| state))) ; $2\defaultout[5:0]
(define-fun |crossbar_controller#6| ((state |crossbar_controller_s|)) (_ BitVec 1) (bvnot (ite (|crossbar_controller#1| state) #b1 #b0))) ; $eq$crossbar_controller.v:24$6_Y
(define-fun |crossbar_controller#7| ((state |crossbar_controller_s|)) Bool (and (or  (|crossbar_controller#0| state) false) (or  (= ((_ extract 0 0) (|crossbar_controller#6| state)) #b1) false))) ; $logic_and$crossbar_controller.v:24$7_Y
(define-fun |crossbar_controller#8| ((state |crossbar_controller_s|)) (_ BitVec 6) (ite (|crossbar_controller#7| state) #b001001 (|crossbar_controller#5| state))) ; \defaultout
; yosys-smt2-output defaultout 6
; yosys-smt2-wire defaultout 6
(define-fun |crossbar_controller_n defaultout| ((state |crossbar_controller_s|)) (_ BitVec 6) (|crossbar_controller#8| state))
; yosys-smt2-anyseq crossbar_controller#9 1 $auto$setundef.cc:533:execute$77
; yosys-smt2-witness {"offset": 0, "path": ["\\_witness_", "\\anyseq_auto_setundef_cc_533_execute_77"], "smtname": 9, "smtoffset": 0, "type": "seq", "width": 1}
(declare-fun |crossbar_controller#9| (|crossbar_controller_s|) (_ BitVec 1)) ; \_witness_.anyseq_auto_setundef_cc_533_execute_77
; yosys-smt2-wire _witness_.anyseq_auto_setundef_cc_533_execute_77 1
(define-fun |crossbar_controller_n _witness_.anyseq_auto_setundef_cc_533_execute_77| ((state |crossbar_controller_s|)) Bool (= ((_ extract 0 0) (|crossbar_controller#9| state)) #b1))
; yosys-smt2-anyseq crossbar_controller#10 1 $auto$setundef.cc:533:execute$75
; yosys-smt2-witness {"offset": 0, "path": ["\\_witness_", "\\anyseq_auto_setundef_cc_533_execute_75"], "smtname": 10, "smtoffset": 0, "type": "seq", "width": 1}
(declare-fun |crossbar_controller#10| (|crossbar_controller_s|) (_ BitVec 1)) ; \_witness_.anyseq_auto_setundef_cc_533_execute_75
; yosys-smt2-wire _witness_.anyseq_auto_setundef_cc_533_execute_75 1
(define-fun |crossbar_controller_n _witness_.anyseq_auto_setundef_cc_533_execute_75| ((state |crossbar_controller_s|)) Bool (= ((_ extract 0 0) (|crossbar_controller#10| state)) #b1))
; yosys-smt2-anyseq crossbar_controller#11 1 $auto$setundef.cc:533:execute$73
; yosys-smt2-witness {"offset": 0, "path": ["\\_witness_", "\\anyseq_auto_setundef_cc_533_execute_73"], "smtname": 11, "smtoffset": 0, "type": "seq", "width": 1}
(declare-fun |crossbar_controller#11| (|crossbar_controller_s|) (_ BitVec 1)) ; \_witness_.anyseq_auto_setundef_cc_533_execute_73
; yosys-smt2-wire _witness_.anyseq_auto_setundef_cc_533_execute_73 1
(define-fun |crossbar_controller_n _witness_.anyseq_auto_setundef_cc_533_execute_73| ((state |crossbar_controller_s|)) Bool (= ((_ extract 0 0) (|crossbar_controller#11| state)) #b1))
; yosys-smt2-anyseq crossbar_controller#12 1 $auto$setundef.cc:533:execute$71
; yosys-smt2-witness {"offset": 0, "path": ["\\_witness_", "\\anyseq_auto_setundef_cc_533_execute_71"], "smtname": 12, "smtoffset": 0, "type": "seq", "width": 1}
(declare-fun |crossbar_controller#12| (|crossbar_controller_s|) (_ BitVec 1)) ; \_witness_.anyseq_auto_setundef_cc_533_execute_71
; yosys-smt2-wire _witness_.anyseq_auto_setundef_cc_533_execute_71 1
(define-fun |crossbar_controller_n _witness_.anyseq_auto_setundef_cc_533_execute_71| ((state |crossbar_controller_s|)) Bool (= ((_ extract 0 0) (|crossbar_controller#12| state)) #b1))
; yosys-smt2-anyseq crossbar_controller#13 1 $auto$setundef.cc:533:execute$69
; yosys-smt2-witness {"offset": 0, "path": ["\\_witness_", "\\anyseq_auto_setundef_cc_533_execute_69"], "smtname": 13, "smtoffset": 0, "type": "seq", "width": 1}
(declare-fun |crossbar_controller#13| (|crossbar_controller_s|) (_ BitVec 1)) ; \_witness_.anyseq_auto_setundef_cc_533_execute_69
; yosys-smt2-wire _witness_.anyseq_auto_setundef_cc_533_execute_69 1
(define-fun |crossbar_controller_n _witness_.anyseq_auto_setundef_cc_533_execute_69| ((state |crossbar_controller_s|)) Bool (= ((_ extract 0 0) (|crossbar_controller#13| state)) #b1))
(define-fun |crossbar_controller#14| ((state |crossbar_controller_s|)) Bool (= (|crossbar_controller#8| state) (|crossbar_controller#2| state))) ; $eq$crossbar_controller.v:38$26_Y
(define-fun |crossbar_controller#15| ((state |crossbar_controller_s|)) (_ BitVec 1) (ite (|crossbar_controller#4| state) (|crossbar_controller#10| state) (ite (|crossbar_controller#14| state) #b1 #b0))) ; $procmux$55_Y
(define-fun |crossbar_controller#16| ((state |crossbar_controller_s|)) (_ BitVec 1) (ite (|crossbar_controller#7| state) (|crossbar_controller#9| state) (|crossbar_controller#15| state))) ; $0$formal$crossbar_controller.v:37$3_CHECK[0:0]$16
(define-fun |crossbar_controller#17| ((state |crossbar_controller_s|)) (_ BitVec 1) (ite (|crossbar_controller#4| state) #b0 #b1)) ; $procmux$49_Y
(define-fun |crossbar_controller#18| ((state |crossbar_controller_s|)) (_ BitVec 1) (ite (|crossbar_controller#7| state) #b0 (|crossbar_controller#17| state))) ; $0$formal$crossbar_controller.v:37$3_EN[0:0]$17
; yosys-smt2-assert 0 $assert$crossbar_controller.v:37$29 crossbar_controller.v:37.15-38.32
(define-fun |crossbar_controller_a 0| ((state |crossbar_controller_s|)) Bool (or (= ((_ extract 0 0) (|crossbar_controller#16| state)) #b1) (not (= ((_ extract 0 0) (|crossbar_controller#18| state)) #b1)))) ; $assert$crossbar_controller.v:37$29
(define-fun |crossbar_controller#19| ((state |crossbar_controller_s|)) Bool (= (|crossbar_controller#8| state) #b010010)) ; $eq$crossbar_controller.v:35$25_Y
(define-fun |crossbar_controller#20| ((state |crossbar_controller_s|)) (_ BitVec 1) (ite (|crossbar_controller#4| state) (ite (|crossbar_controller#19| state) #b1 #b0) (|crossbar_controller#12| state))) ; $procmux$43_Y
(define-fun |crossbar_controller#21| ((state |crossbar_controller_s|)) (_ BitVec 1) (ite (|crossbar_controller#7| state) (|crossbar_controller#11| state) (|crossbar_controller#20| state))) ; $0$formal$crossbar_controller.v:34$2_CHECK[0:0]$14
(define-fun |crossbar_controller#22| ((state |crossbar_controller_s|)) (_ BitVec 1) (ite (|crossbar_controller#4| state) #b1 #b0)) ; $procmux$37_Y
(define-fun |crossbar_controller#23| ((state |crossbar_controller_s|)) (_ BitVec 1) (ite (|crossbar_controller#7| state) #b0 (|crossbar_controller#22| state))) ; $0$formal$crossbar_controller.v:34$2_EN[0:0]$15
; yosys-smt2-assert 1 $assert$crossbar_controller.v:34$28 crossbar_controller.v:34.43-35.39
(define-fun |crossbar_controller_a 1| ((state |crossbar_controller_s|)) Bool (or (= ((_ extract 0 0) (|crossbar_controller#21| state)) #b1) (not (= ((_ extract 0 0) (|crossbar_controller#23| state)) #b1)))) ; $assert$crossbar_controller.v:34$28
(define-fun |crossbar_controller#24| ((state |crossbar_controller_s|)) Bool (= (|crossbar_controller#8| state) #b001001)) ; $eq$crossbar_controller.v:32$21_Y
(define-fun |crossbar_controller#25| ((state |crossbar_controller_s|)) (_ BitVec 1) (ite (|crossbar_controller#7| state) (ite (|crossbar_controller#24| state) #b1 #b0) (|crossbar_controller#13| state))) ; $0$formal$crossbar_controller.v:31$1_CHECK[0:0]$12
(define-fun |crossbar_controller#26| ((state |crossbar_controller_s|)) (_ BitVec 1) (ite (|crossbar_controller#7| state) #b1 #b0)) ; $0$formal$crossbar_controller.v:31$1_EN[0:0]$13
; yosys-smt2-assert 2 $assert$crossbar_controller.v:31$27 crossbar_controller.v:31.38-32.39
(define-fun |crossbar_controller_a 2| ((state |crossbar_controller_s|)) Bool (or (= ((_ extract 0 0) (|crossbar_controller#25| state)) #b1) (not (= ((_ extract 0 0) (|crossbar_controller#26| state)) #b1)))) ; $assert$crossbar_controller.v:31$27
(define-fun |crossbar_controller_a| ((state |crossbar_controller_s|)) Bool (and
  (|crossbar_controller_a 0| state)
  (|crossbar_controller_a 1| state)
  (|crossbar_controller_a 2| state)
))
(define-fun |crossbar_controller_u| ((state |crossbar_controller_s|)) Bool true)
(define-fun |crossbar_controller_i| ((state |crossbar_controller_s|)) Bool true)
(define-fun |crossbar_controller_h| ((state |crossbar_controller_s|)) Bool true)
(define-fun |crossbar_controller_t| ((state |crossbar_controller_s|) (next_state |crossbar_controller_s|)) Bool true) ; end of module crossbar_controller
; yosys-smt2-topmod crossbar_controller
; end of yosys output
